This is Ipopt version 3.10.0, running with linear solver ma27.

Number of nonzeros in equality constraint Jacobian...:        0
Number of nonzeros in inequality constraint Jacobian.:       16
Number of nonzeros in Lagrangian Hessian.............:        0

Total number of variables............................:       16
                     variables with only lower bounds:        0
                variables with lower and upper bounds:       16
                     variables with only upper bounds:        0
Total number of equality constraints.................:        0
Total number of inequality constraints...............:        1
        inequality constraints with only lower bounds:        0
   inequality constraints with lower and upper bounds:        0
        inequality constraints with only upper bounds:        1

iter    objective    inf_pr   inf_du lg(mu)  ||d||  lg(rg) alpha_du alpha_pr  ls
   0  2.6127903e-03 3.46e-01 9.96e-01   0.0 0.00e+00    -  0.00e+00 0.00e+00   0
   1  8.1491684e-03 0.00e+00 8.12e-01  -1.6 2.42e-02    -  1.00e+00 1.00e+00h  1
   2  8.1970453e-03 0.00e+00 7.85e-01  -2.6 7.56e-03    -  1.00e+00 1.00e+00h  1
   3  5.0363055e-03 0.00e+00 5.76e-01  -2.8 6.89e-02    -  1.00e+00 7.75e-01H  1
   4  5.0057681e-03 0.00e+00 3.55e-02  -3.7 1.74e-03    -  1.00e+00 1.00e+00h  1
   5  4.9234971e-03 0.00e+00 5.36e-02  -4.5 1.22e-02    -  1.00e+00 1.00e+00h  1
   6  4.8506309e-03 0.00e+00 4.74e-02  -4.5 1.24e-02    -  1.00e+00 1.00e+00h  1
   7  5.0293135e-03 0.00e+00 8.53e-03  -4.9 5.78e-03    -  1.00e+00 1.00e+00H  1
   8  4.9044210e-03 0.00e+00 5.53e-02  -5.9 2.09e-03    -  1.00e+00 1.00e+00h  1
   9  4.9035073e-03 6.41e-04 5.60e-02  -5.5 3.27e-03    -  1.00e+00 5.00e-01h  2
iter    objective    inf_pr   inf_du lg(mu)  ||d||  lg(rg) alpha_du alpha_pr  ls
  10  4.9771061e-03 0.00e+00 5.49e-02  -4.2 1.39e-02    -  1.00e+00 5.98e-01h  1
  11  5.0146460e-03 0.00e+00 3.40e-02  -4.3 3.49e-03    -  1.00e+00 1.00e+00h  1
  12  5.0657048e-03 0.00e+00 1.98e-01  -4.3 1.44e-03    -  1.00e+00 1.00e+00h  1
  13  4.9125876e-03 0.00e+00 1.57e-02  -5.4 5.88e-03    -  1.00e+00 9.10e-01h  1
  14  4.8865586e-03 0.00e+00 7.75e-02  -5.5 2.61e-03    -  1.00e+00 1.00e+00h  1
  15  4.8479832e-03 0.00e+00 5.82e-02  -6.3 9.13e-04    -  1.00e+00 1.00e+00h  1
  16  4.6703623e-03 0.00e+00 7.57e-02  -5.4 3.37e-03    -  1.00e+00 1.00e+00h  1
  17  4.7163814e-03 0.00e+00 8.70e-02  -6.1 1.76e-03    -  1.00e+00 1.00e+00h  1
  18  4.8374851e-03 0.00e+00 5.82e-02  -5.4 2.97e-02    -  1.00e+00 1.42e-01h  1
  19  4.8281953e-03 0.00e+00 9.02e-02  -5.2 4.10e-03    -  1.00e+00 9.70e-01h  1
iter    objective    inf_pr   inf_du lg(mu)  ||d||  lg(rg) alpha_du alpha_pr  ls
  20  4.7567057e-03 5.04e-04 5.26e-02  -5.9 1.26e-03    -  1.00e+00 1.00e+00h  1
  21  4.7342357e-03 1.25e-03 8.41e-02  -5.4 3.43e-03    -  1.00e+00 2.50e-01h  3
  22  4.8038405e-03 0.00e+00 1.82e-01  -5.5 1.07e-03    -  1.00e+00 1.00e+00h  1
  23  4.8405185e-03 0.00e+00 9.02e-02  -5.2 1.73e-03    -  1.00e+00 9.78e-01h  1
  24  4.5553022e-03 0.00e+00 3.27e-02  -4.4 3.67e-02    -  1.00e+00 2.42e-01h  1
  25  4.5808670e-03 3.92e-04 2.69e-02  -5.2 3.57e-03    -  1.00e+00 1.00e+00h  1
  26  4.6410170e-03 0.00e+00 3.08e-02  -5.8 5.44e-03    -  9.96e-01 1.00e+00H  1
  27  4.4784526e-03 0.00e+00 8.62e-02  -6.6 4.99e-03    -  1.00e+00 4.60e-02h  5
  28  5.4606951e-03 0.00e+00 7.94e-02  -4.3 6.62e-02    -  9.33e-01 4.66e-01H  1
  29  4.4108459e-03 4.81e-02 8.99e-02  -4.4 1.06e-02    -  1.00e+00 1.00e+00h  1
iter    objective    inf_pr   inf_du lg(mu)  ||d||  lg(rg) alpha_du alpha_pr  ls
  30  1.6250920e-03 4.96e-01 4.96e-02  -3.8 5.84e-02    -  4.60e-01 8.71e-01h  1
  31  4.9043889e-03 7.42e-03 6.88e-02  -3.7 5.50e-02    -  1.00e+00 9.50e-01h  1
  32  5.0845393e-03 0.00e+00 5.14e-01  -3.6 7.93e-03    -  1.00e+00 1.00e+00h  1
  33  5.4570735e-03 0.00e+00 9.91e-02  -3.6 7.53e-02    -  2.52e-01 7.71e-02h  2
  34  5.1866671e-03 0.00e+00 4.55e-02  -3.6 2.33e-03    -  1.00e+00 1.00e+00h  1
  35  5.1972165e-03 0.00e+00 9.42e-02  -3.6 1.92e-03    -  1.00e+00 1.00e+00h  1
  36  5.1845734e-03 0.00e+00 4.21e-02  -3.6 1.56e-03    -  1.00e+00 1.00e+00h  1
  37  5.1054146e-03 0.00e+00 7.60e-02  -3.6 2.07e-03    -  1.00e+00 1.00e+00h  1
  38  5.0105187e-03 0.00e+00 2.49e-02  -3.6 2.40e-03    -  1.00e+00 1.00e+00h  1
  39  5.0592748e-03 0.00e+00 7.07e-03  -3.6 1.36e-03    -  1.00e+00 1.00e+00s 26
iter    objective    inf_pr   inf_du lg(mu)  ||d||  lg(rg) alpha_du alpha_pr  ls
  40  5.1028131e-03 0.00e+00 2.92e-02  -3.6 6.31e-04    -  1.00e+00 0.00e+00S 26
  41  5.0525959e-03 0.00e+00 7.51e-03  -3.6 3.53e-03    -  1.00e+00 1.00e+00h  1
  42  4.4383050e-03 0.00e+00 1.06e-01  -3.6 5.31e-03    -  1.00e+00 6.25e-02h  5
  43  5.2069867e-03 0.00e+00 5.50e-02  -3.9 1.49e-02    -  1.00e+00 1.00e+00H  1
  44  4.4683213e-03 3.88e-02 4.32e-02  -4.0 2.36e-02    -  8.42e-01 1.00e+00h  1
  45  4.7855138e-03 0.00e+00 2.70e-02  -4.0 6.54e-03    -  1.00e+00 1.00e+00h  1
  46  4.7771231e-03 0.00e+00 2.09e-02  -4.0 1.53e-02    -  9.63e-01 5.31e-02h  5
  47  4.7663274e-03 0.00e+00 2.71e-02  -4.0 1.70e-02    -  1.00e+00 4.77e-02h  5
  48  4.7806600e-03 0.00e+00 8.68e-03  -4.0 5.30e-03    -  1.00e+00 1.00e+00h  1
  49  4.4213931e-03 0.00e+00 4.09e-01  -4.0 3.42e-03    -  1.00e+00 2.50e-01h  3
iter    objective    inf_pr   inf_du lg(mu)  ||d||  lg(rg) alpha_du alpha_pr  ls
  50  6.7457044e-03 0.00e+00 5.18e-01  -2.9 8.88e-02    -  1.00e+00 3.51e-01h  2
  51  5.1846486e-03 0.00e+00 4.26e-01  -3.0 6.57e-03    -  1.00e+00 1.00e+00h  1
  52  6.4781484e-03 0.00e+00 2.48e-01  -3.0 3.33e-02    -  1.00e+00 1.00e+00h  1
  53  5.8229121e-03 4.81e-02 7.47e-01  -3.0 1.68e-02    -  1.00e+00 1.00e+00h  1
  54  4.1750301e-03 1.11e-01 1.35e-01  -3.0 3.93e-02    -  9.11e-01 1.00e+00h  1
  55  4.8464319e-03 0.00e+00 6.95e-01  -2.8 5.15e-02    -  1.00e+00 1.00e+00h  1
  56  5.6840729e-03 0.00e+00 2.10e-01  -2.9 7.59e-02    -  4.65e-01 2.38e-01h  3
  57  6.2085274e-03 0.00e+00 4.08e-01  -2.9 3.21e-02    -  1.00e+00 1.00e+00H  1
  58  5.7783035e-03 2.50e-02 5.94e-01  -2.9 1.25e-02    -  1.00e+00 1.00e+00h  1
  59  4.4354162e-03 1.02e-01 4.54e-01  -2.9 8.55e-03    -  9.73e-01 1.00e+00h  1
iter    objective    inf_pr   inf_du lg(mu)  ||d||  lg(rg) alpha_du alpha_pr  ls
  60  4.5641684e-03 4.57e-02 2.71e-01  -2.9 6.77e-03    -  1.00e+00 5.00e-01h  2
  61  5.1957698e-03 8.08e-03 9.62e-02  -2.9 9.36e-03    -  1.00e+00 5.00e-01h  2
  62  5.5315336e-03 0.00e+00 3.17e-01  -2.9 4.47e-03    -  1.00e+00 5.00e-01h  2
  63  5.9658198e-03 0.00e+00 1.08e-01  -2.9 5.76e-03    -  1.00e+00 1.00e+00h  1
  64  5.5833445e-03 0.00e+00 3.16e-02  -2.9 1.56e-03    -  1.00e+00 1.00e+00H  1
  65  5.6488403e-03 0.00e+00 1.74e-01  -2.9 6.62e-04    -  1.00e+00 5.00e-01h  2
  66  5.7034103e-03 0.00e+00 6.50e-02  -2.9 3.29e-03    -  1.00e+00 1.00e+00h  1
  67  5.6831145e-03 0.00e+00 2.77e-01  -2.9 1.10e-03    -  1.00e+00 5.00e-01h  2
  68  5.6249512e-03 0.00e+00 2.14e-01  -2.9 3.30e-03    -  1.00e+00 1.00e+00h  1
  69  3.1916343e-03 0.00e+00 3.92e-01  -2.9 6.13e-03    -  1.00e+00 1.00e+00H  1
iter    objective    inf_pr   inf_du lg(mu)  ||d||  lg(rg) alpha_du alpha_pr  ls
  70  4.8464421e-03 0.00e+00 2.87e-01  -3.4 1.48e-02    -  1.00e+00 1.00e+00H  1
  71  4.9330807e-03 0.00e+00 6.00e-02  -3.5 3.11e-03    -  1.00e+00 1.00e+00h  1
  72  5.2452699e-03 0.00e+00 7.48e-02  -3.5 6.59e-03    -  1.00e+00 1.00e+00h  1
  73  5.1188131e-03 0.00e+00 5.25e-02  -3.5 1.59e-03    -  1.00e+00 1.00e+00h  1
  74  5.2018773e-03 0.00e+00 2.47e-02  -3.5 7.21e-04    -  1.00e+00 1.25e-01h  4
  75  5.1590785e-03 0.00e+00 3.22e-02  -3.5 1.18e-03    -  1.00e+00 1.00e+00H  1
  76  4.8862085e-03 0.00e+00 1.81e-01  -3.5 2.88e-04    -  1.00e+00 2.50e-01h  3
  77  4.9221804e-03 0.00e+00 2.34e-01  -3.5 1.31e-03    -  1.00e+00 5.00e-01h  2
  78  5.1311957e-03 0.00e+00 1.12e-01  -3.5 1.85e-03    -  1.00e+00 2.44e-04h 13
  79  4.2173465e-03 0.00e+00 1.10e-01  -3.5 2.35e-02    -  1.00e+00 6.16e-02h  5
iter    objective    inf_pr   inf_du lg(mu)  ||d||  lg(rg) alpha_du alpha_pr  ls
  80  4.9778684e-03 4.45e-04 9.57e-02  -4.1 1.96e-02    -  1.00e+00 1.00e+00H  1
  81  5.2363569e-03 0.00e+00 1.56e-01  -4.3 1.27e-02    -  1.00e+00 1.00e+00h  1
  82  4.6976959e-03 0.00e+00 3.18e-02  -4.3 2.47e-02    -  1.00e+00 6.58e-01H  1
  83  4.6894087e-03 0.00e+00 5.10e-02  -4.3 5.42e-03    -  1.00e+00 1.00e+00f  1
  84  4.6975223e-03 0.00e+00 2.16e-02  -4.3 1.60e-03    -  1.00e+00 1.00e+00h  1
  85  4.3295305e-03 0.00e+00 6.81e-02  -4.3 9.78e-04    -  1.00e+00 5.00e-01h  2
  86  4.6924079e-03 0.00e+00 3.87e-02  -5.7 1.56e-03    -  1.00e+00 1.00e+00h  1
  87  4.6416086e-03 8.09e-04 4.01e-02  -5.7 2.24e-03    -  1.00e+00 1.00e+00h  1
  88  4.6338263e-03 6.88e-04 3.41e-02  -5.7 2.11e-02    -  9.80e-01 1.26e-01h  2
  89  4.6336787e-03 0.00e+00 3.37e-02  -5.7 7.94e-03    -  1.00e+00 6.33e-05h 14
iter    objective    inf_pr   inf_du lg(mu)  ||d||  lg(rg) alpha_du alpha_pr  ls
  90  4.6549567e-03 0.00e+00 1.01e-02  -5.7 4.56e-03    -  1.00e+00 8.45e-01H  1
  91  4.6561065e-03 0.00e+00 1.15e-02  -5.7 2.98e-04    -  1.00e+00 3.05e-05h 16
  92  4.6503081e-03 0.00e+00 2.20e-02  -5.7 3.35e-04    -  1.00e+00 5.00e-01f  2
  93  4.6598933e-03 6.71e-04 1.95e-02  -5.7 3.64e-05    -  1.00e+00 1.00e+00s 23

Number of Iterations....: 93

                                   (scaled)                 (unscaled)
Objective...............:   4.6598932866754143e-03    4.6598932866754143e-03
Dual infeasibility......:   1.9456716574074925e-02    1.9456716574074925e-02
Constraint violation....:   6.7124086485271541e-04    6.7124086485271541e-04
Complementarity.........:   2.2039103877300385e-06    2.2039103877300385e-06
Overall NLP error.......:   1.9456716574074925e-02    1.9456716574074925e-02


Number of objective function evaluations             = 282
Number of objective gradient evaluations             = 94
Number of equality constraint evaluations            = 0
Number of inequality constraint evaluations          = 282
Number of equality constraint Jacobian evaluations   = 0
Number of inequality constraint Jacobian evaluations = 94
Number of Lagrangian Hessian evaluations             = 0
Total CPU secs in IPOPT (w/o function evaluations)   =      0.609
Total CPU secs in NLP function evaluations           = 276782.070

EXIT: Stopping optimization at current point as requested by user.
